[2026-03-24T14:03:05.634Z] Pipeline "set_vm-4-t1_vm-4-t1_s011_g002" → 2026_03_24_14_03_05_set_vm-4-t1_vm-4-t1_s011_g002_max.sol
Set parameter Username
Set parameter LicenseID to value 2797659
Set parameter LogFile to value "gurobi.log"
Using license file /opt/gurobi/gurobi.lic
Academic license - for non-commercial use only - expires 2027-03-24

Gurobi Optimizer version 13.0.1 build v13.0.1rc0 (linux64 - "Ubuntu 24.04.4 LTS")
Copyright (c) 2026, Gurobi Optimization, LLC

Warning: Duplicate section found (read 'binary') - Is a variable name equal to an LP file format keyword?
Warning: Duplicate section found (read 'binary') - Is a variable name equal to an LP file format keyword?
Warning: Duplicate section found (read 'binary') - Is a variable name equal to an LP file format keyword?
Warning: Duplicate section found (read 'binary') - Is a variable name equal to an LP file format keyword?
Warning: Duplicate section found (read 'binary') - Is a variable name equal to an LP file format keyword?
Warning: Duplicate section found (read 'binary') - Is a variable name equal to an LP file format keyword?
Warning: Duplicate section found (read 'binary') - Is a variable name equal to an LP file format keyword?
Warning: Duplicate section found (read 'binary') - Is a variable name equal to an LP file format keyword?
Warning: Duplicate section found (read 'binary') - Is a variable name equal to an LP file format keyword?
Warning: Duplicate section found (read 'binary') - Is a variable name equal to an LP file format keyword?
Warning: Further warnings of this type will be omitted.
Read LP format model from file /root/bgw/data/uploads/2026_03_24_14_03_05_set_vm-4-t1_vm-4-t1_s011_g002_max.lp
Reading time = 0.02 seconds
: 21631 rows, 924 columns, 66196 nonzeros

Using Gurobi shared library /opt/gurobi1301/linux64/lib/libgurobi.so.13.0.1

CPU model: AMD EPYC-Genoa Processor, instruction set [SSE2|AVX|AVX2|AVX512]
Thread count: 16 physical cores, 16 logical processors, using up to 16 threads

Optimize a model with 21631 rows, 924 columns and 66196 nonzeros (Max)
Model fingerprint: 0x0658d35a
Model has 6 linear objective coefficients
Variable types: 47 continuous, 877 integer (877 binary)
Coefficient statistics:
  Matrix range     [1e+00, 4e+01]
  Objective range  [1e+00, 1e+00]
  Bounds range     [1e+00, 1e+00]
  RHS range        [1e+00, 4e+01]

Found heuristic solution: objective 6.0000000
Presolve removed 290 rows and 91 columns
Presolve time: 0.07s
Presolved: 21341 rows, 833 columns, 64213 nonzeros
Variable types: 0 continuous, 833 integer (828 binary)
Found heuristic solution: objective 9.0000000

Root relaxation: objective 2.700000e+01, 182 iterations, 0.03 seconds (0.04 work units)

    Nodes    |    Current Node    |     Objective Bounds      |     Work
 Expl Unexpl |  Obj  Depth IntInf | Incumbent    BestBd   Gap | It/Node Time

     0     0   27.00000    0   14    9.00000   27.00000   200%     -    0s
H    0     0                      11.0000000   27.00000   145%     -    0s
H    0     0                      16.0000000   27.00000  68.8%     -    0s
H    0     0                      17.0000000   27.00000  58.8%     -    0s
     0     0   27.00000    0   15   17.00000   27.00000  58.8%     -    0s
     0     0   27.00000    0   16   17.00000   27.00000  58.8%     -    0s
     0     0   27.00000    0   12   17.00000   27.00000  58.8%     -    0s
     0     0   27.00000    0   12   17.00000   27.00000  58.8%     -    0s
     0     0   27.00000    0   12   17.00000   27.00000  58.8%     -    0s
     0     0   26.00000    0   14   17.00000   26.00000  52.9%     -    0s
     0     0   26.00000    0   14   17.00000   26.00000  52.9%     -    0s
     0     0   26.00000    0   14   17.00000   26.00000  52.9%     -    0s
     0     0   26.00000    0   14   17.00000   26.00000  52.9%     -    0s
     0     0   26.00000    0   12   17.00000   26.00000  52.9%     -    0s
     0     0   26.00000    0    8   17.00000   26.00000  52.9%     -    0s
     0     0   26.00000    0   19   17.00000   26.00000  52.9%     -    0s
     0     0   26.00000    0   12   17.00000   26.00000  52.9%     -    0s
     0     0   25.89744    0   13   17.00000   25.89744  52.3%     -    0s
     0     0   24.00000    0   17   17.00000   24.00000  41.2%     -    0s
     0     0   24.00000    0   13   17.00000   24.00000  41.2%     -    0s
     0     0   24.00000    0   13   17.00000   24.00000  41.2%     -    0s
     0     0   24.00000    0   13   17.00000   24.00000  41.2%     -    0s
     0     2   24.00000    0   13   17.00000   24.00000  41.2%     -    0s

Cutting planes:
  Gomory: 3
  Cover: 1
  MIR: 5
  Zero half: 2
  Mod-K: 2

Explored 201 nodes (42486 simplex iterations) in 1.98 seconds (3.40 work units)
Thread count was 16 (of 16 available processors)

Solution count 5: 17 16 11 ... 6

Optimal solution found (tolerance 1.00e-04)
Best objective 1.700000000000e+01, best bound 1.700000000000e+01, gap 0.0000%

Wrote result file '/root/bgw/data/results/2026_03_24_14_03_05_set_vm-4-t1_vm-4-t1_s011_g002_max.sol'

